
%FILE DATA:	Soccer Computational Problem for MiniZinc Models	%
%AUTHOR:	Jack Wall	%
%CONTACT:  	116397063@umail.ucc.ie			%
%LAST UPDATE:	01/29/2020, 10:17:59						%
%DESCRIPTION: 	40 games played with 16 games left				%

n=8; %number of teams

%Games to play
games=[|1,3|8,2|5,6|4,6|5,8|3,8|6,8|7,3|5,4|3,6|4,7|7,5|5,1|4,2|1,8|2,5|];

%Initial points
iPoints=[12,13,18,14,10,16,17,12];

%POSITION CONSTRAINTS
% [|teamID, operator, position|...]
% operators index:
%  1 for =  operator
%  2 for >  operator
%  3 for >= operator
%  4 for <  operator
%  5 for <= operator
positionConstraints=[|3,4,2|7,4,3|6,4,4|];